\ENCODING=ISO-8859-1
\Problem name: IloCplex

Minimize
 obj: 3 x1 + 1068 x2 + x3 + x4 + 1066 x5 + x6 + 4 x7 + 986 x8 + x9 + 2 x10
      + 1010 x11 + x12 + 3 x13 + 961 x14 + x15 + 2 x16 + 1051 x17 + x18 + 5 x19
      + 1036 x20 + x21 + 5 x22 + 1054 x23 + x24 + 3 x25 + 920 x26 + x27 + 5 x28
      + 1028 x29 + x30 + 2 x31 + 902 x32 + x33 + 3 x34 + 1058 x35 + x36 + 2 x37
      + 993 x38 + x39 + 2 x40 + 1063 x41 + x42 + x43 + 1083 x44 + x45 + 3 x46
      + 928 x47 + x48 + x49 + 959 x50 + x51 + 5 x52 + 927 x53 + x54 + 4 x55
      + 986 x56 + x57 + 4 x58 + 1063 x59 + x60 + 5 x61 + 916 x62 + x63 + 3 x64
      + 1073 x65 + x66 + 4 x67 + 1034 x68 + x69 + 3 x70 + 1049 x71 + x72
      + 2 x73 + 912 x74 + x75 + 4 x76 + 1018 x77 + x78 + 4 x79 + 1087 x80 + x81
      + 2 x82 + 930 x83 + x84 + 2 x85 + 907 x86 + x87 + 5 x88 + 972 x89 + x90
      + 4 x91 + 1033 x92 + x93 + 5 x94 + 950 x95 + x96 + 3 x97 + 962 x98 + x99
      + 3 x100 + 1084 x101 + x102 + x103 + 1025 x104 + x105 + 4 x106 + 953 x107
      + x108 + 3 x109 + 913 x110 + x111 + 4 x112 + 967 x113 + x114 + 4 x115
      + 1015 x116 + x117 + 3 x118 + 1013 x119 + x120 + 2 x121 + 995 x122 + x123
      + 5 x124 + 927 x125 + x126 + 5 x127 + 924 x128 + x129 + 2 x130 + 979 x131
      + x132 + x133 + 1065 x134 + x135 + 3 x136 + 1012 x137 + x138 + x139
      + 932 x140 + x141 + 3 x142 + 956 x143 + x144 + 5 x145 + 1054 x146 + x147
      + 4 x148 + 946 x149 + x150 + 2 x151 + 900 x152 + x153 + x154 + 1079 x155
      + x156 + 5 x157 + 1077 x158 + x159 + 3 x160 + 1080 x161 + x162 + 2 x163
      + 926 x164 + x165 + 2 x166 + 1092 x167 + x168 + 5 x169 + 974 x170 + x171
      + 3 x172 + 1012 x173 + x174 + x175 + 1053 x176 + x177 + x178 + 989 x179
      + x180 + 3 x181 + 967 x182 + x183 + 3 x184 + 954 x185 + x186 + 3 x187
      + 976 x188 + x189 + 5 x190 + 1004 x191 + x192 + 4 x193 + 910 x194 + x195
      + 3 x196 + 1062 x197 + x198 + 3 x199 + 932 x200 + x201 + 3 x202
      + 979 x203 + x204 + 2 x205 + 963 x206 + x207 + 2 x208 + 923 x209 + x210
      + x211 + 1076 x212 + x213 + 5 x214 + 1009 x215 + x216 + 4 x217 + 940 x218
      + x219 + 5 x220 + 913 x221 + x222 + 5 x223 + 1036 x224 + x225 + x226
      + 1054 x227 + x228 + 3 x229 + 922 x230 + x231 + x232 + 1053 x233 + x234
      + 2 x235 + 1007 x236 + x237 + 5 x238 + 972 x239 + x240 + 5 x241
      + 926 x242 + x243 + 2 x244 + 955 x245 + x246 + 3 x247 + 978 x248 + x249
      + 5 x250 + 1033 x251 + x252 + x253 + 939 x254 + x255 + 5 x256 + 1012 x257
      + x258 + x259 + 1088 x260 + x261 + 5 x262 + 1063 x263 + x264 + x265
      + 993 x266 + x267 + 4 x268 + 903 x269 + x270 + 3 x271 + 945 x272 + x273
      + x274 + 1044 x275 + x276 + 3 x277 + 924 x278 + x279 + x280 + 918 x281
      + x282 + 3 x283 + 1089 x284 + x285 + 3 x286 + 971 x287 + x288 + x289
      + 916 x290 + x291 + 2 x292 + 1041 x293 + x294 + 4 x295 + 970 x296 + x297
      + x298 + 945 x299 + x300 + 3 x301 + 1098 x302 + x303 + 5 x304 + 970 x305
      + x306 + 3 x307 + 962 x308 + x309 + x310 + 1006 x311 + x312 + 4 x313
      + 1011 x314 + x315 + x316 + 971 x317 + x318 + 5 x319 + 1052 x320 + x321
      + 4 x322 + 945 x323 + x324 + 5 x325 + 990 x326 + x327 + x328 + 981 x329
      + x330 + 4 x331 + 987 x332 + x333 + 4 x334 + 915 x335 + x336 + 3 x337
      + 1048 x338 + x339 + 3 x340 + 911 x341 + x342 + 4 x343 + 1038 x344 + x345
      + 2 x346 + 1091 x347 + x348 + 2 x349 + 1039 x350 + x351 + 4 x352
      + 994 x353 + x354 + 4 x355 + 1091 x356 + x357 + 3 x358 + 1052 x359 + x360
Subject To
 c1:   x1 - x3  = 232
 c2:   x3 + x4 - x6  = 130
 c3:   x6 + x7 - x9  = 176
 c4:   x9 + x10 - x12  = 14
 c5:   x12 + x13 - x15  = 567
 c6:   x15 + x16 - x18  = 129
 c7:   x18 + x19 - x21  = 67
 c8:   x21 + x22 - x24  = 505
 c9:   x24 + x25 - x27  = 559
 c10:  x27 + x28 - x30  = 123
 c11:  x30 + x31 - x33  = 571
 c12:  x33 + x34 - x36  = 64
 c13:  x36 + x37 - x39  = 453
 c14:  x39 + x40 - x42  = 207
 c15:  x42 + x43 - x45  = 291
 c16:  x45 + x46 - x48  = 300
 c17:  x48 + x49 - x51  = 545
 c18:  x51 + x52 - x54  = 100
 c19:  x54 + x55 - x57  = 486
 c20:  x57 + x58 - x60  = 187
 c21:  x60 + x61 - x63  = 2
 c22:  x63 + x64 - x66  = 511
 c23:  x66 + x67 - x69  = 438
 c24:  x69 + x70 - x72  = 281
 c25:  x72 + x73 - x75  = 352
 c26:  x75 + x76 - x78  = 325
 c27:  x78 + x79 - x81  = 206
 c28:  x81 + x82 - x84  = 199
 c29:  x84 + x85 - x87  = 599
 c30:  x87 + x88 - x90  = 272
 c31:  x90 + x91 - x93  = 386
 c32:  x93 + x94 - x96  = 338
 c33:  x96 + x97 - x99  = 223
 c34:  x99 + x100 - x102  = 17
 c35:  x102 + x103 - x105  = 556
 c36:  x105 + x106 - x108  = 54
 c37:  x108 + x109 - x111  = 368
 c38:  x111 + x112 - x114  = 363
 c39:  x114 + x115 - x117  = 154
 c40:  x117 + x118 - x120  = 436
 c41:  x120 + x121 - x123  = 509
 c42:  x123 + x124 - x126  = 2
 c43:  x126 + x127 - x129  = 317
 c44:  x129 + x130 - x132  = 242
 c45:  x132 + x133 - x135  = 280
 c46:  x135 + x136 - x138  = 251
 c47:  x138 + x139 - x141  = 329
 c48:  x141 + x142 - x144  = 223
 c49:  x144 + x145 - x147  = 447
 c50:  x147 + x148 - x150  = 45
 c51:  x150 + x151 - x153  = 371
 c52:  x153 + x154 - x156  = 166
 c53:  x156 + x157 - x159  = 7
 c54:  x159 + x160 - x162  = 85
 c55:  x162 + x163 - x165  = 292
 c56:  x165 + x166 - x168  = 396
 c57:  x168 + x169 - x171  = 44
 c58:  x171 + x172 - x174  = 175
 c59:  x174 + x175 - x177  = 441
 c60:  x177 + x178 - x180  = 261
 c61:  x180 + x181 - x183  = 593
 c62:  x183 + x184 - x186  = 42
 c63:  x186 + x187 - x189  = 409
 c64:  x189 + x190 - x192  = 193
 c65:  x192 + x193 - x195  = 283
 c66:  x195 + x196 - x198  = 281
 c67:  x198 + x199 - x201  = 408
 c68:  x201 + x202 - x204  = 106
 c69:  x204 + x205 - x207  = 159
 c70:  x207 + x208 - x210  = 496
 c71:  x210 + x211 - x213  = 310
 c72:  x213 + x214 - x216  = 41
 c73:  x216 + x217 - x219  = 66
 c74:  x219 + x220 - x222  = 556
 c75:  x222 + x223 - x225  = 202
 c76:  x225 + x226 - x228  = 554
 c77:  x228 + x229 - x231  = 225
 c78:  x231 + x232 - x234  = 73
 c79:  x234 + x235 - x237  = 30
 c80:  x237 + x238 - x240  = 237
 c81:  x240 + x241 - x243  = 17
 c82:  x243 + x244 - x246  = 385
 c83:  x246 + x247 - x249  = 196
 c84:  x249 + x250 - x252  = 587
 c85:  x252 + x253 - x255  = 297
 c86:  x255 + x256 - x258  = 354
 c87:  x258 + x259 - x261  = 123
 c88:  x261 + x262 - x264  = 513
 c89:  x264 + x265 - x267  = 209
 c90:  x267 + x268 - x270  = 364
 c91:  x270 + x271 - x273  = 598
 c92:  x273 + x274 - x276  = 25
 c93:  x276 + x277 - x279  = 59
 c94:  x279 + x280 - x282  = 46
 c95:  x282 + x283 - x285  = 303
 c96:  x285 + x286 - x288  = 417
 c97:  x288 + x289 - x291  = 160
 c98:  x291 + x292 - x294  = 597
 c99:  x294 + x295 - x297  = 41
 c100: x297 + x298 - x300  = 14
 c101: x300 + x301 - x303  = 443
 c102: x303 + x304 - x306  = 321
 c103: x306 + x307 - x309  = 513
 c104: x309 + x310 - x312  = 242
 c105: x312 + x313 - x315  = 213
 c106: x315 + x316 - x318  = 343
 c107: x318 + x319 - x321  = 582
 c108: x321 + x322 - x324  = 535
 c109: x324 + x325 - x327  = 114
 c110: x327 + x328 - x330  = 397
 c111: x330 + x331 - x333  = 476
 c112: x333 + x334 - x336  = 478
 c113: x336 + x337 - x339  = 123
 c114: x339 + x340 - x342  = 294
 c115: x342 + x343 - x345  = 373
 c116: x345 + x346 - x348  = 84
 c117: x348 + x349 - x351  = 179
 c118: x351 + x352 - x354  = 32
 c119: x354 + x355 - x357  = 90
 c120: x357 + x358 - x360  = 156
 c121: x1 - 1412 x2 <= 0
 c122: x4 - 1506 x5 <= 0
 c123: x7 - 1448 x8 <= 0
 c124: x10 - 1509 x11 <= 0
 c125: x13 - 1301 x14 <= 0
 c126: x16 - 1361 x17 <= 0
 c127: x19 - 1315 x20 <= 0
 c128: x22 - 1301 x23 <= 0
 c129: x25 - 1284 x26 <= 0
 c130: x28 - 1469 x29 <= 0
 c131: x31 - 1430 x32 <= 0
 c132: x34 - 1252 x35 <= 0
 c133: x37 - 1503 x38 <= 0
 c134: x40 - 1436 x41 <= 0
 c135: x43 - 1351 x44 <= 0
 c136: x46 - 1406 x47 <= 0
 c137: x49 - 1316 x50 <= 0
 c138: x52 - 1443 x53 <= 0
 c139: x55 - 1505 x56 <= 0
 c140: x58 - 1292 x59 <= 0
 c141: x61 - 1371 x62 <= 0
 c142: x64 - 1359 x65 <= 0
 c143: x67 - 1255 x68 <= 0
 c144: x70 - 1492 x71 <= 0
 c145: x73 - 1448 x74 <= 0
 c146: x76 - 1320 x77 <= 0
 c147: x79 - 1291 x80 <= 0
 c148: x82 - 1511 x83 <= 0
 c149: x85 - 1250 x86 <= 0
 c150: x88 - 1261 x89 <= 0
 c151: x91 - 1333 x92 <= 0
 c152: x94 - 1258 x95 <= 0
 c153: x97 - 1461 x98 <= 0
 c154: x100 - 1331 x101 <= 0
 c155: x103 - 1434 x104 <= 0
 c156: x106 - 1274 x107 <= 0
 c157: x109 - 1351 x110 <= 0
 c158: x112 - 1432 x113 <= 0
 c159: x115 - 1285 x116 <= 0
 c160: x118 - 1451 x119 <= 0
 c161: x121 - 1507 x122 <= 0
 c162: x124 - 1447 x125 <= 0
 c163: x127 - 1270 x128 <= 0
 c164: x130 - 1491 x131 <= 0
 c165: x133 - 1341 x134 <= 0
 c166: x136 - 1464 x137 <= 0
 c167: x139 - 1321 x140 <= 0
 c168: x142 - 1362 x143 <= 0
 c169: x145 - 1244 x146 <= 0
 c170: x148 - 1365 x149 <= 0
 c171: x151 - 1490 x152 <= 0
 c172: x154 - 1293 x155 <= 0
 c173: x157 - 1265 x158 <= 0
 c174: x160 - 1384 x161 <= 0
 c175: x163 - 1460 x164 <= 0
 c176: x166 - 1500 x167 <= 0
 c177: x169 - 1443 x170 <= 0
 c178: x172 - 1450 x173 <= 0
 c179: x175 - 1267 x176 <= 0
 c180: x178 - 1245 x179 <= 0
 c181: x181 - 1258 x182 <= 0
 c182: x184 - 1450 x185 <= 0
 c183: x187 - 1452 x188 <= 0
 c184: x190 - 1413 x191 <= 0
 c185: x193 - 1340 x194 <= 0
 c186: x196 - 1361 x197 <= 0
 c187: x199 - 1315 x200 <= 0
 c188: x202 - 1282 x203 <= 0
 c189: x205 - 1433 x206 <= 0
 c190: x208 - 1424 x209 <= 0
 c191: x211 - 1465 x212 <= 0
 c192: x214 - 1259 x215 <= 0
 c193: x217 - 1315 x218 <= 0
 c194: x220 - 1432 x221 <= 0
 c195: x223 - 1502 x224 <= 0
 c196: x226 - 1247 x227 <= 0
 c197: x229 - 1272 x230 <= 0
 c198: x232 - 1474 x233 <= 0
 c199: x235 - 1459 x236 <= 0
 c200: x238 - 1311 x239 <= 0
 c201: x241 - 1395 x242 <= 0
 c202: x244 - 1518 x245 <= 0
 c203: x247 - 1437 x248 <= 0
 c204: x250 - 1376 x251 <= 0
 c205: x253 - 1399 x254 <= 0
 c206: x256 - 1288 x257 <= 0
 c207: x259 - 1376 x260 <= 0
 c208: x262 - 1434 x263 <= 0
 c209: x265 - 1366 x266 <= 0
 c210: x268 - 1281 x269 <= 0
 c211: x271 - 1471 x272 <= 0
 c212: x274 - 1461 x275 <= 0
 c213: x277 - 1382 x278 <= 0
 c214: x280 - 1368 x281 <= 0
 c215: x283 - 1401 x284 <= 0
 c216: x286 - 1393 x287 <= 0
 c217: x289 - 1459 x290 <= 0
 c218: x292 - 1441 x293 <= 0
 c219: x295 - 1483 x296 <= 0
 c220: x298 - 1494 x299 <= 0
 c221: x301 - 1468 x302 <= 0
 c222: x304 - 1440 x305 <= 0
 c223: x307 - 1346 x308 <= 0
 c224: x310 - 1360 x311 <= 0
 c225: x313 - 1307 x314 <= 0
 c226: x316 - 1402 x317 <= 0
 c227: x319 - 1420 x320 <= 0
 c228: x322 - 1318 x323 <= 0
 c229: x325 - 1276 x326 <= 0
 c230: x328 - 1273 x329 <= 0
 c231: x331 - 1484 x332 <= 0
 c232: x334 - 1351 x335 <= 0
 c233: x337 - 1264 x338 <= 0
 c234: x340 - 1246 x341 <= 0
 c235: x343 - 1479 x344 <= 0
 c236: x346 - 1391 x347 <= 0
 c237: x349 - 1486 x350 <= 0
 c238: x352 - 1486 x353 <= 0
 c239: x355 - 1336 x356 <= 0
 c240: x358 - 1458 x359 <= 0
Bounds
 0 <= x2 <= 1
 0 <= x5 <= 1
 0 <= x8 <= 1
 0 <= x11 <= 1
 0 <= x14 <= 1
 0 <= x17 <= 1
 0 <= x20 <= 1
 0 <= x23 <= 1
 0 <= x26 <= 1
 0 <= x29 <= 1
 0 <= x32 <= 1
 0 <= x35 <= 1
 0 <= x38 <= 1
 0 <= x41 <= 1
 0 <= x44 <= 1
 0 <= x47 <= 1
 0 <= x50 <= 1
 0 <= x53 <= 1
 0 <= x56 <= 1
 0 <= x59 <= 1
 0 <= x62 <= 1
 0 <= x65 <= 1
 0 <= x68 <= 1
 0 <= x71 <= 1
 0 <= x74 <= 1
 0 <= x77 <= 1
 0 <= x80 <= 1
 0 <= x83 <= 1
 0 <= x86 <= 1
 0 <= x89 <= 1
 0 <= x92 <= 1
 0 <= x95 <= 1
 0 <= x98 <= 1
 0 <= x101 <= 1
 0 <= x104 <= 1
 0 <= x107 <= 1
 0 <= x110 <= 1
 0 <= x113 <= 1
 0 <= x116 <= 1
 0 <= x119 <= 1
 0 <= x122 <= 1
 0 <= x125 <= 1
 0 <= x128 <= 1
 0 <= x131 <= 1
 0 <= x134 <= 1
 0 <= x137 <= 1
 0 <= x140 <= 1
 0 <= x143 <= 1
 0 <= x146 <= 1
 0 <= x149 <= 1
 0 <= x152 <= 1
 0 <= x155 <= 1
 0 <= x158 <= 1
 0 <= x161 <= 1
 0 <= x164 <= 1
 0 <= x167 <= 1
 0 <= x170 <= 1
 0 <= x173 <= 1
 0 <= x176 <= 1
 0 <= x179 <= 1
 0 <= x182 <= 1
 0 <= x185 <= 1
 0 <= x188 <= 1
 0 <= x191 <= 1
 0 <= x194 <= 1
 0 <= x197 <= 1
 0 <= x200 <= 1
 0 <= x203 <= 1
 0 <= x206 <= 1
 0 <= x209 <= 1
 0 <= x212 <= 1
 0 <= x215 <= 1
 0 <= x218 <= 1
 0 <= x221 <= 1
 0 <= x224 <= 1
 0 <= x227 <= 1
 0 <= x230 <= 1
 0 <= x233 <= 1
 0 <= x236 <= 1
 0 <= x239 <= 1
 0 <= x242 <= 1
 0 <= x245 <= 1
 0 <= x248 <= 1
 0 <= x251 <= 1
 0 <= x254 <= 1
 0 <= x257 <= 1
 0 <= x260 <= 1
 0 <= x263 <= 1
 0 <= x266 <= 1
 0 <= x269 <= 1
 0 <= x272 <= 1
 0 <= x275 <= 1
 0 <= x278 <= 1
 0 <= x281 <= 1
 0 <= x284 <= 1
 0 <= x287 <= 1
 0 <= x290 <= 1
 0 <= x293 <= 1
 0 <= x296 <= 1
 0 <= x299 <= 1
 0 <= x302 <= 1
 0 <= x305 <= 1
 0 <= x308 <= 1
 0 <= x311 <= 1
 0 <= x314 <= 1
 0 <= x317 <= 1
 0 <= x320 <= 1
 0 <= x323 <= 1
 0 <= x326 <= 1
 0 <= x329 <= 1
 0 <= x332 <= 1
 0 <= x335 <= 1
 0 <= x338 <= 1
 0 <= x341 <= 1
 0 <= x344 <= 1
 0 <= x347 <= 1
 0 <= x350 <= 1
 0 <= x353 <= 1
 0 <= x356 <= 1
 0 <= x359 <= 1
Binaries
 x2  x5  x8  x11  x14  x17  x20  x23  x26  x29  x32  x35  x38  x41  x44  x47 
 x50  x53  x56  x59  x62  x65  x68  x71  x74  x77  x80  x83  x86  x89  x92 
 x95  x98  x101  x104  x107  x110  x113  x116  x119  x122  x125  x128  x131 
 x134  x137  x140  x143  x146  x149  x152  x155  x158  x161  x164  x167  x170 
 x173  x176  x179  x182  x185  x188  x191  x194  x197  x200  x203  x206  x209 
 x212  x215  x218  x221  x224  x227  x230  x233  x236  x239  x242  x245  x248 
 x251  x254  x257  x260  x263  x266  x269  x272  x275  x278  x281  x284  x287 
 x290  x293  x296  x299  x302  x305  x308  x311  x314  x317  x320  x323  x326 
 x329  x332  x335  x338  x341  x344  x347  x350  x353  x356  x359 
End
